(set-logic QF_LIA)
(set-info :ran/ran14.smt2)
(set-info :smt-lib-version 2.0)
(declare-fun x0 () Int)
(declare-fun x1 () Int)
(declare-fun x2 () Int)
(declare-fun x3 () Int)
(declare-fun x4 () Int)
(declare-fun x5 () Int)
(declare-fun x6 () Int)
(declare-fun x7 () Int)
(declare-fun x8 () Int)
(declare-fun x9 () Int)
(declare-fun x10 () Int)
(declare-fun x11 () Int)
(declare-fun x12 () Int)
(declare-fun x13 () Int)
(define-fun ie0 () Bool (<= (+ (* (- 90) x13) (* 97 x4) (* (- 43) x6) ) (- 27)))
(define-fun ie1 () Bool (<= (+ (* 97 x10) (* 9 x10) (* (- 71) x11) ) (- 85)))
(define-fun ie2 () Bool (<= (+ (* (- 67) x11) (* 71 x10) ) 95))
(define-fun ie3 () Bool (<= (+ (* (- 96) x11) (* (- 65) x2) (* (- 53) x12) ) (- 89)))
(define-fun ie4 () Bool (<= (+ (* (- 28) x11) (* (- 45) x5) (* (- 70) x1) (* 91 x1) ) (- 19)))
(define-fun ie5 () Bool (<= (+ (* (- 82) x0) (* 93 x1) (* (- 35) x8) (* 44 x11) ) (- 52)))
(define-fun ie6 () Bool (<= (+ (* (- 41) x5) (* 7 x7) ) (- 4)))
(define-fun ie7 () Bool (<= (+ (* 91 x11) (* (- 21) x6) (* (- 75) x13) ) 28))
(define-fun ie8 () Bool (<= (+ (* (- 23) x6) (* 45 x12) (* 65 x10) ) 61))
(define-fun ie9 () Bool (<= (+ (* 20 x3) (* 35 x8) (* (- 33) x1) (* (- 63) x3) ) (- 2)))
(define-fun ie10 () Bool (<= (+ (* 10 x7) (* (- 37) x6) (* 0 x7) (* (- 47) x2) ) 61))
(define-fun ie11 () Bool (<= (+ (* 87 x1) (* 11 x2) (* 99 x12) ) (- 63)))
(define-fun ie12 () Bool (<= (+ (* 87 x2) (* (- 48) x3) (* 5 x1) (* (- 55) x1) ) (- 82)))
(define-fun ie13 () Bool (<= (+ (* (- 60) x6) (* 30 x9) (* 22 x4) (* (- 39) x4) ) (- 99)))
(assert ie0)
(assert ie1)
(assert ie2)
(assert ie3)
(assert ie4)
(assert ie5)
(assert ie6)
(assert ie7)
(assert ie8)
(assert ie9)
(assert ie10)
(assert ie11)
(assert ie12)
(assert ie13)
(check-sat)
(exit)
